/*********************************************
 * OPL 12.8.0.0 Data
 * Author: sam
 * Creation Date: Sep 4, 2018 at 9:15:02 PM
 *********************************************/

 nJobs=15;
 NbMachine = 2;
 MachineCapacity = [40 45];
 E = 1000;
 e = 0.001;

p=	[	14	19	17	10	6	17	18	2	11	10	14	13	18	2	8	]	;
//d=	[	14	22	22	16	14	17	19	2	16	11	16	18	24	6	10	]	;
d=	[	14	22	220	16	140	170	190	20	160	110	106	18	204	60	9	]	;
s=	[	7	12	6	8	7	9	3	2	6	7	14	7	12	12	8	]	;
r=	[	0	3	5	6	8	0	1	0	5	1	2	5	6	4	2	]	;




